\ENCODING=ISO-8859-1
\Problem name: IloCplex

Minimize
 obj: 800 y_0 + 800 y_1 + 800 y_2 + 800 y_3 + 800 y_4 + 800 y_5 + 800 y_6
      + 800 y_7 + 800 y_8 + 800 y_9 + 800 y_10 + 800 y_11 + 800 y_12 + 800 y_13
      + 800 y_14 + 800 y_15 + 800 y_16 + 800 y_17 + 800 y_18 + 800 y_19
      + 800 y_20 + 800 y_21 + 800 y_22 + 800 y_23 + 800 y_24 + 800 y_25
      + 800 y_26 + 800 y_27 + 800 y_28 + 800 y_29 + 800 y_30 + 800 y_31
      + 800 y_32 + 800 y_33 + 800 y_34 + 800 y_35 + 800 y_36 + 800 y_37
      + 800 y_38 + 800 y_39 + 800 y_40 + 800 y_41 + 800 y_42 + 800 y_43
      + 800 y_44 + 800 y_45 + 800 y_46 + 800 y_47 + 800 y_48 + 800 y_49
      + 800 y_50 + 800 y_51 + 800 y_52 + 800 y_53 + 800 y_54 + 800 y_55
      + 800 y_56 + 800 y_57 + 800 y_58 + 800 y_59 + 800 y_60 + 800 y_61
      + 800 y_62 + 800 y_63 + 800 y_64 + 800 y_65 + 800 y_66 + 800 y_67
      + 800 y_68 + 800 y_69 + 800 y_70 + 800 y_71 + 800 y_72 + 800 y_73
      + 800 y_74 + 800 y_75 + 800 y_76 + 800 y_77 + 800 y_78 + 800 y_79
      + 800 y_80 + 800 y_81 + 800 y_82 + 800 y_83 + 800 y_84 + 800 y_85
      + 800 y_86 + 800 y_87 + 800 y_88 + 800 y_89 + 800 y_90 + 800 y_91
      + 800 y_92 + 800 y_93 + 800 y_94 + 8 x_10 + 8 x_11 + 304 x_12 + 304 x_13
      + 4 x_14 + 606 x_15 + 601 x_16 + x_17 + 1056 x_18 + 155 x_19 + 157 x_20
      + 351 x_21 + x_22 + 6 x_23 + 7 x_24 + 1055 x_25 + 1055 x_26 + x_27
      + 695 x_28 + 1542 x_29 + 304 x_30 + 268 x_31 + 268 x_32 + 958 x_33
      + 860 x_34 + 608 x_35 + 608 x_36 + 505 x_37 + 507 x_38 + 266 x_39
      + 1054 x_40 + 1055 x_41 + 1059 x_42 + 888 x_43 + 2 x_44 + 1056 x_45
      + 1056 x_46 + 2 x_47 + 654 x_48 + 1101 x_49 + x_50 + 1055 x_51 + x_52
      + 1544 x_53 + 2045 x_54 + 2299 x_55 + 266 x_56 + 266 x_57 + 336 x_58
      + 1202 x_59 + 4 x_60 + 937 x_61 + 264 x_62 + 253 x_63 + 1653 x_64
      + 2705 x_65 + 487 x_66 + 535 x_67 + 2 x_68 + 956 x_69 + 1086 x_70
      + 3 x_71 + 3 x_72 + 4 x_73 + 5 x_74 + 1053 x_75 + 1057 x_76 + 6 x_77
      + x_78 + 2 x_79 + 2 x_80 + 606 x_81 + 4 x_82 + 4 x_83 + 1053 x_84
      + 1797 x_85 + 4 x_86 + 6 x_87 + 2 x_88 + 2 x_89 + 600 x_90 + 602 x_91
      + 3 x_92 + 3 x_93 + 2151 x_94 + 1303 x_95 + 6 x_96 + 3 x_97 + 953 x_98
      + 2206 x_99 + 646 x_100 + 43 x_101 + 888 x_102 + 1245 x_103 + 5 x_104
      + 647 x_105 + 456 x_106 + 1058 x_107 + 406 x_108 + 1106 x_109
      + 1106 x_110 + 646 x_111 + 646 x_112 + 1074 x_113 + 886 x_114
      + 2235 x_115 + 5 x_116 + 5 x_117 + 604 x_118 + 752 x_119 + 5 x_120
      + 4 x_121 + 453 x_122 + 5 x_123 + 1103 x_124 + 754 x_125 + 4 x_126
      + 4 x_127 + 6 x_128 + 4 x_129 + 605 x_130 + 603 x_131 + 357 x_132
      + 1206 x_133 + 195 x_134 + 195 x_135 + 198 x_136 + 196 x_137 + 5 x_138
      + 5 x_139 + 8 x_140 + 1455 x_141 + 1455 x_142 + 154 x_143 + 154 x_144
      + 486 x_145 + 486 x_146 + 953 x_147
Subject To
 cover_lg_0:   y_0 + x_0 + x_8 + x_9  = 1
 cover_lg_1:   y_1 + x_0 + x_8 + x_9 + x_17 + x_27 + x_29  = 1
 cover_lg_2:   y_2 + x_0 + x_9 + x_13 + x_18 + x_28 + x_30 + x_47 + x_122  = 1
 cover_lg_3:   y_3 + x_0 + x_9 + x_13 + x_18 + x_28 + x_30 + x_47 + x_122  = 1
 cover_lg_4:   y_4 + x_0 + x_14 + x_19 + x_33 + x_37 + x_50 + x_60 + x_61
               + x_71 + x_77 + x_81 + x_92 + x_100 + x_102 + x_103 + x_104
               + x_105 + x_111 + x_112 + x_113 + x_114 + x_115 + x_123  = 1
 cover_lg_5:   y_5 + x_0 + x_14 + x_33 + x_48 + x_77 + x_81 + x_123  = 1
 cover_lg_6:   y_6 + x_0  = 1
 cover_lg_7:   y_7 + x_0  = 1
 cover_lg_8:   y_8 + x_1 + x_10 + x_11 + x_23 + x_24 + x_28 + x_31 + x_32
               + x_39 + x_56 + x_57 + x_62 + x_77 + x_78 + x_83 + x_86 + x_87
               + x_100 + x_106 + x_108 + x_111 + x_112 + x_116 + x_117 + x_120
               + x_126 + x_127 + x_140 + x_143 + x_144 + x_145 + x_146  = 1
 cover_lg_9:   y_9 + x_1 + x_21 + x_97 + x_101 + x_106 + x_107 + x_108 + x_109
               + x_110 + x_116 + x_117 + x_118 + x_119 + x_120 + x_125 + x_134
               + x_135 + x_136 + x_137 + x_143 + x_144  = 1
 cover_lg_10:  y_10 + x_1 + x_45 + x_46 + x_48 + x_49 + x_51 + x_55 + x_106
               + x_107 + x_108 + x_109 + x_110 + x_119 + x_124 + x_125 + x_134
               + x_135 + x_136 + x_137 + x_141 + x_142 + x_143 + x_144  = 1
 cover_lg_11:  y_11 + x_1  = 1
 cover_lg_12:  y_12 + x_1  = 1
 cover_lg_13:  y_13 + x_1 + x_10 + x_11 + x_31 + x_32 + x_43 + x_56 + x_57
               + x_66 + x_77 + x_86 + x_87 + x_96 + x_100 + x_106 + x_108
               + x_111 + x_112 + x_116 + x_117 + x_120 + x_126 + x_127 + x_132
               + x_134 + x_135 + x_138 + x_139 + x_140 + x_143 + x_144 + x_145
               + x_146  = 1
 cover_lg_14:  y_14 + x_2 + x_68 + x_69 + x_79 + x_80 + x_88 + x_89 + x_113
               + x_114 + x_121  = 1
 cover_lg_15:  y_15 + x_2 + x_68 + x_69 + x_79 + x_80 + x_88 + x_89 + x_113
               + x_114 + x_121 + x_122 + x_123  = 1
 cover_lg_16:  y_16 + x_2 + x_12 + x_15 + x_22  = 1
 cover_lg_17:  y_17 + x_2 + x_12 + x_15 + x_97 + x_98 + x_101 + x_116 + x_117
               + x_118 + x_120 + x_147  = 1
 cover_lg_18:  y_18 + x_2 + x_12 + x_15 + x_97 + x_98 + x_101 + x_116 + x_117
               + x_118 + x_120 + x_147  = 1
 cover_lg_19:  y_19 + x_2 + x_12 + x_15 + x_97 + x_98 + x_101 + x_116 + x_117
               + x_118 + x_120 + x_147  = 1
 cover_lg_20:  y_20 + x_2 + x_12 + x_33 + x_45 + x_46 + x_58 + x_68 + x_79
               + x_80 + x_88 + x_89 + x_97 + x_101 + x_113 + x_117 + x_129
               + x_137  = 1
 cover_lg_21:  y_21 + x_2 + x_12 + x_33 + x_45 + x_46 + x_58 + x_68 + x_79
               + x_80 + x_88 + x_89 + x_97 + x_101 + x_113 + x_117 + x_129
               + x_137  = 1
 cover_lg_22:  y_22 + x_2 + x_12 + x_33 + x_34 + x_45 + x_46 + x_58 + x_68
               + x_69 + x_79 + x_80 + x_88 + x_89 + x_97 + x_101 + x_102
               + x_113 + x_114 + x_121 + x_128 + x_129 + x_136 + x_137  = 1
 cover_lg_23:  y_23 + x_3 + x_13 + x_14 + x_47 + x_48  = 1
 cover_lg_24:  y_24 + x_3 + x_10 + x_11 + x_12 + x_14 + x_19 + x_20 + x_23
               + x_24 + x_26 + x_58 + x_61 + x_87 + x_91 + x_140  = 1
 cover_lg_25:  y_25 + x_3 + x_10 + x_11 + x_12 + x_14 + x_19 + x_20 + x_23
               + x_24 + x_26 + x_58 + x_61 + x_87 + x_91 + x_140  = 1
 cover_lg_26:  y_26 + x_3 + x_11 + x_57 + x_58 + x_59 + x_61 + x_65 + x_106
               + x_107 + x_133  = 1
 cover_lg_27:  y_27 + x_3 + x_11 + x_57 + x_58 + x_59 + x_61 + x_65 + x_106
               + x_107 + x_133  = 1
 cover_lg_28:  y_28 + x_3 + x_10 + x_11 + x_20 + x_32 + x_36 + x_38 + x_40
               + x_96 + x_106 + x_107 + x_108 + x_133  = 1
 cover_lg_29:  y_29 + x_3 + x_10 + x_11 + x_20 + x_32 + x_36 + x_38 + x_40
               + x_96 + x_106 + x_107 + x_108 + x_133  = 1
 cover_lg_30:  y_30 + x_3 + x_10 + x_11 + x_20 + x_38 + x_51 + x_66 + x_69
               + x_70 + x_72 + x_77 + x_81 + x_93 + x_96 + x_100 + x_102
               + x_103 + x_105 + x_106 + x_107 + x_108 + x_111 + x_112 + x_114
               + x_115 + x_120 + x_133 + x_145 + x_146  = 1
 cover_lg_31:  y_31 + x_3 + x_10 + x_11 + x_66 + x_69 + x_70 + x_77 + x_81
               + x_96 + x_100 + x_102 + x_103 + x_106 + x_107 + x_108 + x_111
               + x_112 + x_114 + x_115 + x_120 + x_133 + x_145 + x_146  = 1
 cover_lg_32:  y_32 + x_3  = 1
 cover_lg_33:  y_33 + x_3  = 1
 cover_lg_34:  y_34 + x_15 + x_16 + x_35 + x_36 + x_49 + x_59 + x_70 + x_81
               + x_90 + x_91 + x_98 + x_99 + x_103 + x_107 + x_109 + x_110
               + x_115 + x_118 + x_119 + x_124 + x_125 + x_130 + x_131 + x_133
               + x_141 + x_142 + x_147  = 1
 cover_lg_35:  y_35 + x_29 + x_45 + x_46 + x_48 + x_49 + x_51 + x_54 + x_55
               + x_59 + x_64 + x_65 + x_98 + x_115 + x_124 + x_133 + x_141
               + x_142 + x_147  = 1
 cover_lg_36:  y_36 + x_54 + x_59 + x_64 + x_65 + x_115 + x_133  = 1
 cover_lg_37:  y_37 + x_40 + x_45 + x_46 + x_48 + x_49 + x_51 + x_53 + x_55
               + x_86 + x_87 + x_88 + x_89 + x_90 + x_91 + x_93 + x_108 + x_119
               + x_124 + x_125 + x_134 + x_135 + x_136 + x_137 + x_143 + x_144
                = 1
 cover_lg_38:  y_38 + x_46 + x_49 + x_80 + x_89 + x_90 + x_91 + x_100 + x_102
               + x_103 + x_105 + x_111 + x_112 + x_113 + x_114 + x_115 + x_119
               + x_131  = 1
 cover_lg_39:  y_39 + x_15 + x_49 + x_59 + x_90 + x_91 + x_98 + x_116 + x_118
               + x_119 + x_131 + x_147  = 1
 cover_lg_40:  y_40 + x_15 + x_49 + x_59 + x_90 + x_91 + x_98 + x_116 + x_118
               + x_119 + x_124 + x_125 + x_127 + x_130 + x_131 + x_135 + x_139
               + x_144 + x_147  = 1
 cover_lg_41:  y_41 + x_15 + x_35 + x_36 + x_49 + x_59 + x_70 + x_81 + x_90
               + x_91 + x_98 + x_99 + x_103 + x_107 + x_109 + x_110 + x_115
               + x_118 + x_119 + x_124 + x_125 + x_130 + x_131 + x_133 + x_141
               + x_142 + x_147  = 1
 cover_lg_42:  y_42 + x_4 + x_17 + x_58 + x_60 + x_61 + x_101 + x_102 + x_104
               + x_105 + x_128 + x_129 + x_136 + x_137  = 1
 cover_lg_43:  y_43 + x_4 + x_44 + x_58 + x_61 + x_66 + x_73 + x_74 + x_82
               + x_101 + x_102 + x_104 + x_105 + x_128 + x_129 + x_132 + x_134
               + x_135 + x_136 + x_137 + x_138 + x_139  = 1
 cover_lg_44:  y_44 + x_4 + x_16 + x_92 + x_95 + x_100 + x_102 + x_103 + x_104
               + x_105 + x_132  = 1
 cover_lg_45:  y_45 + x_4 + x_60 + x_63 + x_92 + x_95 + x_96 + x_100 + x_102
               + x_103 + x_104 + x_105 + x_132  = 1
 cover_lg_46:  y_46 + x_4  = 1
 cover_lg_47:  y_47 + x_4  = 1
 cover_lg_48:  y_48 + x_4  = 1
 cover_lg_49:  y_49 + x_4  = 1
 cover_lg_50:  y_50 + x_5 + x_12 + x_18 + x_19 + x_20 + x_33 + x_34 + x_37
               + x_38 + x_45 + x_46 + x_50 + x_51 + x_71 + x_72 + x_92 + x_93
               + x_97  = 1
 cover_lg_51:  y_51 + x_5 + x_12 + x_18 + x_19 + x_20 + x_33 + x_34 + x_37
               + x_38 + x_45 + x_46 + x_50 + x_51 + x_71 + x_72 + x_92 + x_93
               + x_97  = 1
 cover_lg_52:  y_52 + x_5 + x_44 + x_50 + x_77 + x_78 + x_81 + x_82 + x_83
               + x_84 + x_111 + x_145  = 1
 cover_lg_53:  y_53 + x_5 + x_50 + x_77 + x_81 + x_82 + x_83 + x_84 + x_111
               + x_145  = 1
 cover_lg_54:  y_54 + x_5 + x_24 + x_31 + x_34 + x_35 + x_42 + x_66 + x_69
               + x_70 + x_74 + x_76 + x_132 + x_140 + x_145 + x_146  = 1
 cover_lg_55:  y_55 + x_5 + x_24 + x_31 + x_34 + x_35 + x_42 + x_66 + x_69
               + x_70 + x_74 + x_76 + x_132 + x_140 + x_145 + x_146  = 1
 cover_lg_56:  y_56 + x_5 + x_31 + x_32 + x_34 + x_35 + x_36 + x_43 + x_132
               + x_140  = 1
 cover_lg_57:  y_57 + x_5 + x_31 + x_32 + x_34 + x_35 + x_36 + x_43 + x_132
               + x_140  = 1
 cover_lg_58:  y_58 + x_5  = 1
 cover_lg_59:  y_59 + x_21 + x_22  = 1
 cover_lg_60:  y_60 + x_13 + x_15 + x_18 + x_25 + x_28 + x_30 + x_31 + x_32
               + x_33 + x_34 + x_35 + x_36 + x_37 + x_38 + x_39 + x_41 + x_42
               + x_56 + x_57 + x_62 + x_130 + x_131  = 1
 cover_lg_61:  y_61 + x_13 + x_15 + x_18 + x_25 + x_28 + x_30 + x_31 + x_32
               + x_33 + x_34 + x_35 + x_36 + x_37 + x_38 + x_39 + x_41 + x_42
               + x_56 + x_57 + x_62 + x_130 + x_131  = 1
 cover_lg_62:  y_62 + x_56 + x_79 + x_80 + x_85 + x_121 + x_126 + x_127 + x_128
               + x_129 + x_130 + x_131 + x_138 + x_139  = 1
 cover_lg_63:  y_63 + x_40 + x_45 + x_51 + x_53 + x_55 + x_56 + x_79 + x_85
               + x_86 + x_87 + x_88 + x_93 + x_108 + x_121 + x_124 + x_125
               + x_126 + x_127 + x_128 + x_129 + x_130 + x_134 + x_135 + x_136
               + x_137 + x_138 + x_139 + x_143 + x_144  = 1
 cover_lg_64:  y_64 + x_53 + x_55 + x_56 + x_57 + x_85 + x_86 + x_87 + x_121
               + x_124 + x_125 + x_126 + x_127 + x_128 + x_130 + x_134 + x_135
               + x_136 + x_138 + x_139 + x_143 + x_144  = 1
 cover_lg_65:  y_65 + x_53 + x_55 + x_56 + x_57 + x_85 + x_86 + x_87 + x_121
               + x_126 + x_128 + x_134 + x_136 + x_138 + x_143  = 1
 cover_lg_66:  y_66  = 1
 cover_lg_67:  y_67  = 1
 cover_lg_68:  y_68  = 1
 cover_lg_69:  y_69 + x_10 + x_14 + x_19 + x_20 + x_23 + x_24 + x_25 + x_26
               + x_31 + x_32 + x_33 + x_34 + x_35 + x_36 + x_37 + x_38 + x_39
               + x_41 + x_42 + x_54 + x_66 + x_68 + x_69 + x_70 + x_71 + x_72
               + x_73 + x_74 + x_75 + x_76 + x_112 + x_113 + x_114 + x_115
               + x_123 + x_140 + x_146  = 1
 cover_lg_70:  y_70 + x_10 + x_14 + x_19 + x_20 + x_23 + x_24 + x_25 + x_26
               + x_31 + x_32 + x_33 + x_34 + x_35 + x_36 + x_37 + x_38 + x_39
               + x_41 + x_42 + x_54 + x_66 + x_68 + x_69 + x_70 + x_71 + x_72
               + x_73 + x_74 + x_75 + x_76 + x_112 + x_113 + x_114 + x_115
               + x_123 + x_140 + x_146  = 1
 cover_lg_71:  y_71 + x_23 + x_25 + x_26 + x_39 + x_41 + x_52 + x_54 + x_62
               + x_63 + x_64 + x_65 + x_73 + x_75 + x_82 + x_83 + x_84 + x_94
               + x_95  = 1
 cover_lg_72:  y_72  = 1
 cover_lg_73:  y_73  = 1
 cover_lg_74:  y_74  = 1
 cover_lg_75:  y_75 + x_6 + x_40 + x_43 + x_52 + x_53 + x_67  = 1
 cover_lg_76:  y_76 + x_6 + x_40 + x_43 + x_52 + x_53 + x_67  = 1
 cover_lg_77:  y_77 + x_6 + x_40 + x_43 + x_52 + x_53 + x_67  = 1
 cover_lg_78:  y_78 + x_6 + x_40 + x_43 + x_52 + x_53 + x_67  = 1
 cover_lg_79:  y_79 + x_6 + x_43 + x_67 + x_110 + x_142  = 1
 cover_lg_80:  y_80 + x_6 + x_43 + x_110 + x_142  = 1
 cover_lg_81:  y_81 + x_6 + x_24 + x_40 + x_42 + x_53 + x_55 + x_74 + x_76
               + x_85 + x_99 + x_109 + x_110 + x_141 + x_142  = 1
 cover_lg_82:  y_82 + x_6 + x_24 + x_40 + x_42 + x_53 + x_55 + x_74 + x_76
               + x_85 + x_99 + x_109 + x_110 + x_141 + x_142  = 1
 cover_lg_83:  y_83 + x_6 + x_24 + x_40 + x_42 + x_53 + x_55 + x_74 + x_76
               + x_85  = 1
 cover_lg_84:  y_84 + x_25 + x_26 + x_41 + x_42 + x_54 + x_55 + x_64 + x_65
               + x_75 + x_76 + x_84 + x_85 + x_94 + x_95  = 1
 cover_lg_85:  y_85 + x_94 + x_99  = 1
 cover_lg_86:  y_86 + x_94 + x_99  = 1
 cover_lg_87:  y_87 + x_99 + x_109 + x_141  = 1
 cover_lg_88:  y_88 + x_99 + x_109 + x_141  = 1
 cover_lg_89:  y_89  = 1
 cover_lg_90:  y_90 + x_7 + x_60 + x_63 + x_96  = 1
 cover_lg_91:  y_91 + x_7  = 1
 cover_lg_92:  y_92 + x_7  = 1
 cover_lg_93:  y_93 + x_7  = 1
 cover_lg_94:  y_94 + x_7  = 1
 select_ac_0:  x_0 + x_8 + x_9 <= 1
 select_ac_1:  x_1 + x_10 + x_11 + x_31 + x_32 + x_43 + x_44 + x_56 + x_57
               + x_66 + x_67 + x_77 + x_78 + x_86 + x_87 + x_96 + x_100 + x_106
               + x_108 + x_111 + x_112 + x_116 + x_117 + x_120 + x_126 + x_127
               + x_132 + x_134 + x_135 + x_138 + x_139 + x_140 + x_143 + x_144
               + x_145 + x_146 <= 1
 select_ac_2:  x_2 + x_12 + x_33 + x_34 + x_45 + x_46 + x_58 + x_68 + x_69
               + x_79 + x_80 + x_88 + x_89 + x_97 + x_101 + x_102 + x_113
               + x_114 + x_121 + x_128 + x_129 + x_136 + x_137 <= 1
 select_ac_3:  x_3 + x_13 + x_14 + x_47 + x_48 + x_122 + x_123 <= 1
 select_ac_4:  x_15 + x_16 + x_35 + x_36 + x_49 + x_59 + x_70 + x_81 + x_90
               + x_91 + x_98 + x_99 + x_103 + x_107 + x_109 + x_110 + x_115
               + x_118 + x_119 + x_124 + x_125 + x_130 + x_131 + x_133 + x_141
               + x_142 + x_147 <= 1
 select_ac_5:  x_4 + x_17 + x_18 <= 1
 select_ac_6:  x_5 + x_19 + x_20 + x_37 + x_38 + x_50 + x_51 + x_60 + x_61
               + x_71 + x_72 + x_92 + x_93 + x_104 + x_105 <= 1
 select_ac_7:  x_21 + x_22 <= 1
 select_ac_8:  x_6 + x_23 + x_24 + x_39 + x_40 + x_52 + x_53 + x_62 + x_63
               + x_73 + x_74 + x_82 + x_83 <= 1
 select_ac_9:  x_25 + x_26 + x_41 + x_42 + x_54 + x_55 + x_64 + x_65 + x_75
               + x_76 + x_84 + x_85 + x_94 + x_95 <= 1
 select_ac_10: x_7 + x_27 + x_28 <= 1
 select_ac_11: x_29 + x_30 <= 1
Bounds
 0 <= y_0 <= 1
 0 <= y_1 <= 1
 0 <= y_2 <= 1
 0 <= y_3 <= 1
 0 <= y_4 <= 1
 0 <= y_5 <= 1
 0 <= y_6 <= 1
 0 <= y_7 <= 1
 0 <= y_8 <= 1
 0 <= y_9 <= 1
 0 <= y_10 <= 1
 0 <= y_11 <= 1
 0 <= y_12 <= 1
 0 <= y_13 <= 1
 0 <= y_14 <= 1
 0 <= y_15 <= 1
 0 <= y_16 <= 1
 0 <= y_17 <= 1
 0 <= y_18 <= 1
 0 <= y_19 <= 1
 0 <= y_20 <= 1
 0 <= y_21 <= 1
 0 <= y_22 <= 1
 0 <= y_23 <= 1
 0 <= y_24 <= 1
 0 <= y_25 <= 1
 0 <= y_26 <= 1
 0 <= y_27 <= 1
 0 <= y_28 <= 1
 0 <= y_29 <= 1
 0 <= y_30 <= 1
 0 <= y_31 <= 1
 0 <= y_32 <= 1
 0 <= y_33 <= 1
 0 <= y_34 <= 1
 0 <= y_35 <= 1
 0 <= y_36 <= 1
 0 <= y_37 <= 1
 0 <= y_38 <= 1
 0 <= y_39 <= 1
 0 <= y_40 <= 1
 0 <= y_41 <= 1
 0 <= y_42 <= 1
 0 <= y_43 <= 1
 0 <= y_44 <= 1
 0 <= y_45 <= 1
 0 <= y_46 <= 1
 0 <= y_47 <= 1
 0 <= y_48 <= 1
 0 <= y_49 <= 1
 0 <= y_50 <= 1
 0 <= y_51 <= 1
 0 <= y_52 <= 1
 0 <= y_53 <= 1
 0 <= y_54 <= 1
 0 <= y_55 <= 1
 0 <= y_56 <= 1
 0 <= y_57 <= 1
 0 <= y_58 <= 1
 0 <= y_59 <= 1
 0 <= y_60 <= 1
 0 <= y_61 <= 1
 0 <= y_62 <= 1
 0 <= y_63 <= 1
 0 <= y_64 <= 1
 0 <= y_65 <= 1
 0 <= y_66 <= 1
 0 <= y_67 <= 1
 0 <= y_68 <= 1
 0 <= y_69 <= 1
 0 <= y_70 <= 1
 0 <= y_71 <= 1
 0 <= y_72 <= 1
 0 <= y_73 <= 1
 0 <= y_74 <= 1
 0 <= y_75 <= 1
 0 <= y_76 <= 1
 0 <= y_77 <= 1
 0 <= y_78 <= 1
 0 <= y_79 <= 1
 0 <= y_80 <= 1
 0 <= y_81 <= 1
 0 <= y_82 <= 1
 0 <= y_83 <= 1
 0 <= y_84 <= 1
 0 <= y_85 <= 1
 0 <= y_86 <= 1
 0 <= y_87 <= 1
 0 <= y_88 <= 1
 0 <= y_89 <= 1
 0 <= y_90 <= 1
 0 <= y_91 <= 1
 0 <= y_92 <= 1
 0 <= y_93 <= 1
 0 <= y_94 <= 1
 0 <= x_0 <= 1
 0 <= x_1 <= 1
 0 <= x_2 <= 1
 0 <= x_3 <= 1
 0 <= x_4 <= 1
 0 <= x_5 <= 1
 0 <= x_6 <= 1
 0 <= x_7 <= 1
 0 <= x_8 <= 1
 0 <= x_9 <= 1
 0 <= x_10 <= 1
 0 <= x_11 <= 1
 0 <= x_12 <= 1
 0 <= x_13 <= 1
 0 <= x_14 <= 1
 0 <= x_15 <= 1
 0 <= x_16 <= 1
 0 <= x_17 <= 1
 0 <= x_18 <= 1
 0 <= x_19 <= 1
 0 <= x_20 <= 1
 0 <= x_21 <= 1
 0 <= x_22 <= 1
 0 <= x_23 <= 1
 0 <= x_24 <= 1
 0 <= x_25 <= 1
 0 <= x_26 <= 1
 0 <= x_27 <= 1
 0 <= x_28 <= 1
 0 <= x_29 <= 1
 0 <= x_30 <= 1
 0 <= x_31 <= 1
 0 <= x_32 <= 1
 0 <= x_33 <= 1
 0 <= x_34 <= 1
 0 <= x_35 <= 1
 0 <= x_36 <= 1
 0 <= x_37 <= 1
 0 <= x_38 <= 1
 0 <= x_39 <= 1
 0 <= x_40 <= 1
 0 <= x_41 <= 1
 0 <= x_42 <= 1
 0 <= x_43 <= 1
 0 <= x_44 <= 1
 0 <= x_45 <= 1
 0 <= x_46 <= 1
 0 <= x_47 <= 1
 0 <= x_48 <= 1
 0 <= x_49 <= 1
 0 <= x_50 <= 1
 0 <= x_51 <= 1
 0 <= x_52 <= 1
 0 <= x_53 <= 1
 0 <= x_54 <= 1
 0 <= x_55 <= 1
 0 <= x_56 <= 1
 0 <= x_57 <= 1
 0 <= x_58 <= 1
 0 <= x_59 <= 1
 0 <= x_60 <= 1
 0 <= x_61 <= 1
 0 <= x_62 <= 1
 0 <= x_63 <= 1
 0 <= x_64 <= 1
 0 <= x_65 <= 1
 0 <= x_66 <= 1
 0 <= x_67 <= 1
 0 <= x_68 <= 1
 0 <= x_69 <= 1
 0 <= x_70 <= 1
 0 <= x_71 <= 1
 0 <= x_72 <= 1
 0 <= x_73 <= 1
 0 <= x_74 <= 1
 0 <= x_75 <= 1
 0 <= x_76 <= 1
 0 <= x_77 <= 1
 0 <= x_78 <= 1
 0 <= x_79 <= 1
 0 <= x_80 <= 1
 0 <= x_81 <= 1
 0 <= x_82 <= 1
 0 <= x_83 <= 1
 0 <= x_84 <= 1
 0 <= x_85 <= 1
 0 <= x_86 <= 1
 0 <= x_87 <= 1
 0 <= x_88 <= 1
 0 <= x_89 <= 1
 0 <= x_90 <= 1
 0 <= x_91 <= 1
 0 <= x_92 <= 1
 0 <= x_93 <= 1
 0 <= x_94 <= 1
 0 <= x_95 <= 1
 0 <= x_96 <= 1
 0 <= x_97 <= 1
 0 <= x_98 <= 1
 0 <= x_99 <= 1
 0 <= x_100 <= 1
 0 <= x_101 <= 1
 0 <= x_102 <= 1
 0 <= x_103 <= 1
 0 <= x_104 <= 1
 0 <= x_105 <= 1
 0 <= x_106 <= 1
 0 <= x_107 <= 1
 0 <= x_108 <= 1
 0 <= x_109 <= 1
 0 <= x_110 <= 1
 0 <= x_111 <= 1
 0 <= x_112 <= 1
 0 <= x_113 <= 1
 0 <= x_114 <= 1
 0 <= x_115 <= 1
 0 <= x_116 <= 1
 0 <= x_117 <= 1
 0 <= x_118 <= 1
 0 <= x_119 <= 1
 0 <= x_120 <= 1
 0 <= x_121 <= 1
 0 <= x_122 <= 1
 0 <= x_123 <= 1
 0 <= x_124 <= 1
 0 <= x_125 <= 1
 0 <= x_126 <= 1
 0 <= x_127 <= 1
 0 <= x_128 <= 1
 0 <= x_129 <= 1
 0 <= x_130 <= 1
 0 <= x_131 <= 1
 0 <= x_132 <= 1
 0 <= x_133 <= 1
 0 <= x_134 <= 1
 0 <= x_135 <= 1
 0 <= x_136 <= 1
 0 <= x_137 <= 1
 0 <= x_138 <= 1
 0 <= x_139 <= 1
 0 <= x_140 <= 1
 0 <= x_141 <= 1
 0 <= x_142 <= 1
 0 <= x_143 <= 1
 0 <= x_144 <= 1
 0 <= x_145 <= 1
 0 <= x_146 <= 1
 0 <= x_147 <= 1
Binaries
 y_0  y_1  y_2  y_3  y_4  y_5  y_6  y_7  y_8  y_9  y_10  y_11  y_12  y_13 
 y_14  y_15  y_16  y_17  y_18  y_19  y_20  y_21  y_22  y_23  y_24  y_25  y_26 
 y_27  y_28  y_29  y_30  y_31  y_32  y_33  y_34  y_35  y_36  y_37  y_38  y_39 
 y_40  y_41  y_42  y_43  y_44  y_45  y_46  y_47  y_48  y_49  y_50  y_51  y_52 
 y_53  y_54  y_55  y_56  y_57  y_58  y_59  y_60  y_61  y_62  y_63  y_64  y_65 
 y_66  y_67  y_68  y_69  y_70  y_71  y_72  y_73  y_74  y_75  y_76  y_77  y_78 
 y_79  y_80  y_81  y_82  y_83  y_84  y_85  y_86  y_87  y_88  y_89  y_90  y_91 
 y_92  y_93  y_94  x_0  x_1  x_2  x_3  x_4  x_5  x_6  x_7  x_8  x_9  x_10 
 x_11  x_12  x_13  x_14  x_15  x_16  x_17  x_18  x_19  x_20  x_21  x_22  x_23 
 x_24  x_25  x_26  x_27  x_28  x_29  x_30  x_31  x_32  x_33  x_34  x_35  x_36 
 x_37  x_38  x_39  x_40  x_41  x_42  x_43  x_44  x_45  x_46  x_47  x_48  x_49 
 x_50  x_51  x_52  x_53  x_54  x_55  x_56  x_57  x_58  x_59  x_60  x_61  x_62 
 x_63  x_64  x_65  x_66  x_67  x_68  x_69  x_70  x_71  x_72  x_73  x_74  x_75 
 x_76  x_77  x_78  x_79  x_80  x_81  x_82  x_83  x_84  x_85  x_86  x_87  x_88 
 x_89  x_90  x_91  x_92  x_93  x_94  x_95  x_96  x_97  x_98  x_99  x_100 
 x_101  x_102  x_103  x_104  x_105  x_106  x_107  x_108  x_109  x_110  x_111 
 x_112  x_113  x_114  x_115  x_116  x_117  x_118  x_119  x_120  x_121  x_122 
 x_123  x_124  x_125  x_126  x_127  x_128  x_129  x_130  x_131  x_132  x_133 
 x_134  x_135  x_136  x_137  x_138  x_139  x_140  x_141  x_142  x_143  x_144 
 x_145  x_146  x_147 
End
